c CNF file corresponding to a (partial) station packing problem.
p cnf 4434 229
1 2 3 4 5 6 7 8 9 10 11 12 13 14 0
-1 -2 0
-1 -3 0
-1 -4 0
-1 -5 0
-1 -6 0
-1 -7 0
-1 -8 0
-1 -9 0
-1 -10 0
-1 -11 0
-1 -12 0
-1 -13 0
-1 -14 0
-2 -3 0
-2 -4 0
-2 -5 0
-2 -6 0
-2 -7 0
-2 -8 0
-2 -9 0
-2 -10 0
-2 -11 0
-2 -12 0
-2 -13 0
-2 -14 0
-3 -4 0
-3 -5 0
-3 -6 0
-3 -7 0
-3 -8 0
-3 -9 0
-3 -10 0
-3 -11 0
-3 -12 0
-3 -13 0
-3 -14 0
-4 -5 0
-4 -6 0
-4 -7 0
-4 -8 0
-4 -9 0
-4 -10 0
-4 -11 0
-4 -12 0
-4 -13 0
-4 -14 0
-5 -6 0
-5 -7 0
-5 -8 0
-5 -9 0
-5 -10 0
-5 -11 0
-5 -12 0
-5 -13 0
-5 -14 0
-6 -7 0
-6 -8 0
-6 -9 0
-6 -10 0
-6 -11 0
-6 -12 0
-6 -13 0
-6 -14 0
-7 -8 0
-7 -9 0
-7 -10 0
-7 -11 0
-7 -12 0
-7 -13 0
-7 -14 0
-8 -9 0
-8 -10 0
-8 -11 0
-8 -12 0
-8 -13 0
-8 -14 0
-9 -10 0
-9 -11 0
-9 -12 0
-9 -13 0
-9 -14 0
-10 -11 0
-10 -12 0
-10 -13 0
-10 -14 0
-11 -12 0
-11 -13 0
-11 -14 0
-12 -13 0
-12 -14 0
-13 -14 0
4418 4419 4420 4421 4422 4423 4424 4425 4426 4427 4428 4429 4430 4431 4432 4433 4434 0
-4418 -4419 0
-4418 -4420 0
-4418 -4421 0
-4418 -4422 0
-4418 -4423 0
-4418 -4424 0
-4418 -4425 0
-4418 -4426 0
-4418 -4427 0
-4418 -4428 0
-4418 -4429 0
-4418 -4430 0
-4418 -4431 0
-4418 -4432 0
-4418 -4433 0
-4418 -4434 0
-4419 -4420 0
-4419 -4421 0
-4419 -4422 0
-4419 -4423 0
-4419 -4424 0
-4419 -4425 0
-4419 -4426 0
-4419 -4427 0
-4419 -4428 0
-4419 -4429 0
-4419 -4430 0
-4419 -4431 0
-4419 -4432 0
-4419 -4433 0
-4419 -4434 0
-4420 -4421 0
-4420 -4422 0
-4420 -4423 0
-4420 -4424 0
-4420 -4425 0
-4420 -4426 0
-4420 -4427 0
-4420 -4428 0
-4420 -4429 0
-4420 -4430 0
-4420 -4431 0
-4420 -4432 0
-4420 -4433 0
-4420 -4434 0
-4421 -4422 0
-4421 -4423 0
-4421 -4424 0
-4421 -4425 0
-4421 -4426 0
-4421 -4427 0
-4421 -4428 0
-4421 -4429 0
-4421 -4430 0
-4421 -4431 0
-4421 -4432 0
-4421 -4433 0
-4421 -4434 0
-4422 -4423 0
-4422 -4424 0
-4422 -4425 0
-4422 -4426 0
-4422 -4427 0
-4422 -4428 0
-4422 -4429 0
-4422 -4430 0
-4422 -4431 0
-4422 -4432 0
-4422 -4433 0
-4422 -4434 0
-4423 -4424 0
-4423 -4425 0
-4423 -4426 0
-4423 -4427 0
-4423 -4428 0
-4423 -4429 0
-4423 -4430 0
-4423 -4431 0
-4423 -4432 0
-4423 -4433 0
-4423 -4434 0
-4424 -4425 0
-4424 -4426 0
-4424 -4427 0
-4424 -4428 0
-4424 -4429 0
-4424 -4430 0
-4424 -4431 0
-4424 -4432 0
-4424 -4433 0
-4424 -4434 0
-4425 -4426 0
-4425 -4427 0
-4425 -4428 0
-4425 -4429 0
-4425 -4430 0
-4425 -4431 0
-4425 -4432 0
-4425 -4433 0
-4425 -4434 0
-4426 -4427 0
-4426 -4428 0
-4426 -4429 0
-4426 -4430 0
-4426 -4431 0
-4426 -4432 0
-4426 -4433 0
-4426 -4434 0
-4427 -4428 0
-4427 -4429 0
-4427 -4430 0
-4427 -4431 0
-4427 -4432 0
-4427 -4433 0
-4427 -4434 0
-4428 -4429 0
-4428 -4430 0
-4428 -4431 0
-4428 -4432 0
-4428 -4433 0
-4428 -4434 0
-4429 -4430 0
-4429 -4431 0
-4429 -4432 0
-4429 -4433 0
-4429 -4434 0
-4430 -4431 0
-4430 -4432 0
-4430 -4433 0
-4430 -4434 0
-4431 -4432 0
-4431 -4433 0
-4431 -4434 0
-4432 -4433 0
-4432 -4434 0
-4433 -4434 0
